\ENCODING=ISO-8859-1
\Problem name: instances

Maximize
 obj:
Subject To
 c1: 33 x1 + 75 x2 - 22 x3 + 80 x4 + 96 x5 + 76 x6 + 69 x7 + 88 x8 + 60 x9
     + 81 x10 <= 314
 c2: 20 x1 + 75 x2 + 5 x3 + 55 x4 - 60 x5 + 39 x6 + 40 x8 + 86 x9 <= 241
 c3: 6 x1 + 37 x2 + 86 x3 + 45 x4 + 64 x5 + 85 x6 + 44 x7 - 89 x9 <= 224
 c4: 23 x1 - 47 x2 + 26 x3 - 80 x5 - 81 x6 - 18 x7 + 71 x8 + 57 x10 <= 37
 c5: 2 x1 - 33 x2 + 35 x3 + 37 x5 + 17 x6 - 13 x7 + 17 x8 + 100 x9 + 57 x10
     <= 219
Bounds
      x1 >= 0
      x2 >= 0
      x3 >= 0
      x4 >= 0
      x5 >= 0
      x6 >= 0
      x7 >= 0
      x8 >= 0
      x9 >= 0
      x10 >= 0
Generals
 x1  x2  x3  x4  x5  x6  x7  x8  x9  x10 
End
